1000
750
600
599
599
599
598
598
598
598
598
597
597
597
597
597
596
596
596
595
595
595
595
594
594
594
594
594
593
593
592
592
591
591
591
589
589
589
588
586
586
586
585
585
585
585
584
583
582
581
581
581
580
580
580
579
579
578
578
578
578
577
576
576
576
576
575
575
574
574
573
573
573
573
572
572
571
571
571
571
570
570
570
569
569
569
569
568
568
568
567
566
566
566
565
565
562
562
562
562
562
562
560
559
558
558
558
557
556
556
556
556
555
554
554
554
554
554
553
552
551
551
551
549
549
549
549
549
548
548
548
547
547
547
547
547
546
546
544
544
544
544
544
543
542
542
542
541
541
541
541
541
540
540
539
539
539
539
538
538
538
537
537
537
537
536
535
535
534
534
534
533
533
532
531
531
531
530
530
530
530
530
530
529
529
528
528
528
528
527
527
525
525
525
524
524
524
524
524
523
523
522
522
521
521
521
521
521
521
520
520
519
518
517
516
516
515
514
512
512
511
511
511
510
510
510
510
510
509
509
508
508
507
507
506
506
506
506
505
505
505
504
503
503
503
503
503
502
502
501
501
500
500
499
498
498
498
497
496
494
494
494
494
494
493
493
492
492
491
490
490
489
487
487
487
487
486
486
485
485
485
484
483
482
481
481
481
481
480
480
480
479
479
478
478
478
478
477
477
476
476
476
476
475
474
474
474
474
473
473
473
472
472
472
471
470
470
470
469
469
468
467
467
467
466
465
465
464
464
464
464
464
463
463
462
462
461
461
461
461
460
460
459
459
459
459
458
458
458
458
458
457
456
456
455
454
454
454
452
452
452
452
451
450
450
449
448
448
448
447
447
447
447
447
446
446
445
444
444
444
443
443
443
442
442
442
440
440
438
438
438
437
436
436
436
436
435
434
434
434
434
434
433
433
432
431
430
430
429
428
428
427
427
425
425
424
424
423
423
423
423
422
422
421
420
420
420
420
420
419
418
417
417
416
415
414
413
413
412
412
412
411
411
411
411
410
410
409
409
409
408
408
407
406
405
405
405
404
404
404
404
404
404
403
403
403
403
403
402
402
402
401
400
400
400
399
398
398
398
397
397
396
396
396
396
395
395
395
395
395
394
393
393
392
391
390
390
389
389
388
388
385
385
385
384
384
384
383
383
382
381
379
379
379
379
378
377
377
376
376
375
374
374
373
372
372
372
372
371
371
371
370
370
369
369
369
369
369
368
368
367
367
366
366
366
365
365
365
364
363
363
361
361
360
360
359
359
359
359
358
357
357
357
357
356
356
355
355
354
354
353
353
353
353
353
353
352
352
352
351
351
350
350
350
350
350
349
349
349
348
348
348
346
346
345
345
345
344
344
343
343
343
343
343
343
343
342
342
342
341
341
341
340
339
339
338
337
337
337
337
337
337
337
335
335
333
332
332
332
330
330
330
329
329
329
329
329
329
329
329
328
327
326
326
326
325
325
323
322
322
322
322
322
320
319
319
318
318
318
318
317
317
317
317
316
316
315
315
314
314
314
314
314
314
313
312
311
311
311
311
310
310
308
308
308
307
307
305
305
304
303
303
301
301
301
299
299
299
298
298
298
297
297
297
296
294
294
293
293
293
291
290
290
290
289
289
288
288
288
288
286
285
285
284
283
283
282
282
282
282
282
281
281
279
279
278
278
278
277
277
277
276
276
275
273
272
272
271
271
271
269
268
267
267
267
266
265
265
264
264
264
261
261
261
260
258
257
257
256
255
254
254
254
254
254
253
253
252
252
251
251
250
250
249
248
248
248
248
246
246
245
244
243
243
243
242
242
241
241
241
241
240
240
238
238
237
237
236
236
236
236
235
235
234
233
231
231
231
230
229
229
228
228
227
227
226
226
226
224
223
223
223
223
223
222
221
221
221
220
220
220
219
218
218
218
216
216
216
214
213
212
211
211
211
211
211
211
210
210
210
209
209
209
209
209
208
208
208
208
207
206
206
205
205
204
204
204
204
204
204
204
203
203
202
202
202
201
201
201
200
199
199
199
198
197
196
196
196
195
195
194
194
194
193
193
192
192
191
191
189
189
189
189
188
188
188
188
186
186
185
182
182
182
181
181
180
180
180
179
178
177
177
176
176
176
175
175
173
173
173
172
172
172
171
171
171
170
170
170
169
169
168
168
167
166
166
165
164
164
164
164
164
163
163
163
163
163
163
161
161
161
161
160
160
159
159
159
159
159
158
158
158
157
157
156
156
156
156
156
156
155
155
155
154
154
154
152
151
151
150
150
150
